m = 2;
n = 3;
l = [18, 30];
s = [20, 17, 6];
min_dist = 118;
max_dist = 271;
min_solution = 160;
time = 3;
at_least_one = 1;
min_load = 6;
max_load = 30;
distances = [| 0, 21, 86, 99, 
 		     | 21, 0, 71, 80, 
 		     | 92, 71, 0, 61, 
 		     | 59, 80, 61, 0 |];
